1342
0	99	173	248	370	387	394	403	455	490
99	148	215	297	425	487	571	663	693	735
148	215	285	389	571	654	693	757	837	873
174	223	297	399	493	654	700	806	899	1021
0	215	241	315	387	442	578	616	629	757
241	265	487	592	647	695	794	873	964	1048
0	16	265	367	465	530	700	841	950	1052
16	274	361	412	487	736	964	1052	1098	1139
70	173	488	528	618	810	890	1093	1153	1244
123	315	374	493	592	695	714	822	1153	1247
